(set-logic QF_S)
(declare-fun var0 () String)
(assert (str.in.re var0 (re.++ (re.union (re.+ (str.to.re "0")) (re.+ (str.to.re "111"))) (re.++ (re.+ (re.* (str.to.re "222"))) (re.++ (re.+ (re.union (str.to.re "3") (str.to.re "44"))) (re.++ (re.+ (re.+ (str.to.re "5"))) (re.++ (re.* (re.* (str.to.re "66"))) (re.++ (re.+ (re.+ (str.to.re "7"))) (re.++ (re.+ (re.+ (str.to.re "8"))) (re.++ (re.* (re.union (str.to.re "999") (str.to.re "aa"))) (re.++ (re.union (re.union (str.to.re "bbb") (str.to.re "ccc")) (re.union (str.to.re "ddd") (str.to.re "eee"))) (re.++ (re.* (re.+ (str.to.re "fff"))) (re.++ (re.union (re.* (str.to.re "gg")) (re.* (str.to.re "hh"))) (re.++ (re.+ (re.* (str.to.re "ii"))) (re.++ (re.+ (re.* (str.to.re "jjj"))) (re.++ (re.union (re.* (str.to.re "kkk")) (re.* (str.to.re "lll"))) (re.++ (re.+ (re.+ (str.to.re "mmm"))) (re.++ (re.union (re.union (str.to.re "n") (str.to.re "ooo")) (re.union (str.to.re "pp") (str.to.re "qq"))) (re.++ (re.union (re.union (str.to.re "rr") (str.to.re "ss")) (re.union (str.to.re "tt") (str.to.re "uuu"))) (re.++ (re.* (re.union (str.to.re "vv") (str.to.re "ww"))) (re.++ (re.* (re.* (str.to.re "x"))) (re.++ (re.union (re.union (str.to.re "yy") (str.to.re "zz")) (re.union (str.to.re "AA") (str.to.re "BB"))) (re.++ (re.+ (re.union (str.to.re "CC") (str.to.re "DD"))) (re.++ (re.* (re.+ (str.to.re "EEE"))) (re.++ (re.* (re.+ (str.to.re "F"))) (re.++ (re.* (re.union (str.to.re "GG") (str.to.re "H"))) (re.++ (re.+ (re.* (str.to.re "III"))) (re.++ (re.+ (re.union (str.to.re "JJ") (str.to.re "KKK"))) (re.++ (re.* (re.* (str.to.re "LL"))) (re.++ (re.* (re.union (str.to.re "MMM") (str.to.re "NN"))) (re.++ (re.union (re.* (str.to.re "OO")) (re.* (str.to.re "P"))) (re.++ (re.union (re.* (str.to.re "Q")) (re.* (str.to.re "RRR"))) (re.++ (re.union (re.+ (str.to.re "S")) (re.+ (str.to.re "TTT"))) (re.++ (re.+ (re.union (str.to.re "UU") (str.to.re "V"))) (re.++ (re.* (re.union (str.to.re "WWW") (str.to.re "XX"))) (re.++ (re.+ (re.* (str.to.re "YYY"))) (re.++ (re.union (re.+ (str.to.re "ZZZ")) (re.+ (str.to.re "!"))) (re.++ (re.* (re.union (str.to.re """") (str.to.re "##"))) (re.++ (re.+ (re.union (str.to.re "$$$") (str.to.re "%%%"))) (re.++ (re.* (re.* (str.to.re "&&&"))) (re.++ (re.union (re.+ (str.to.re "'")) (re.+ (str.to.re "((("))) (re.++ (re.* (re.* (str.to.re ")))"))) (re.++ (re.union (re.union (str.to.re "***") (str.to.re "++")) (re.union (str.to.re ",,") (str.to.re "---"))) (re.++ (re.* (re.union (str.to.re ".") (str.to.re "/"))) (re.++ (re.union (re.+ (str.to.re "::")) (re.+ (str.to.re ";;"))) (re.++ (re.* (re.+ (str.to.re "<"))) (re.++ (re.union (re.union (str.to.re "=") (str.to.re ">")) (re.union (str.to.re "???") (str.to.re "@@"))) (re.++ (re.union (re.+ (str.to.re "[")) (re.+ (str.to.re "\\\\"))) (re.++ (re.* (re.* (str.to.re "]"))) (re.++ (re.+ (re.* (str.to.re "^"))) (re.++ (re.* (re.union (str.to.re "_") (str.to.re "``"))) (re.++ (re.+ (re.union (str.to.re "{") (str.to.re "||"))) (re.++ (re.* (re.* (str.to.re "}}"))) (re.++ (re.+ (re.* (str.to.re "~~~"))) (re.++ (re.union (re.* (str.to.re "0")) (re.* (str.to.re "11"))) (re.++ (re.+ (re.union (str.to.re "222") (str.to.re "333"))) (re.++ (re.* (re.* (str.to.re "4"))) (re.++ (re.* (re.* (str.to.re "5"))) (re.++ (re.* (re.* (str.to.re "66"))) (re.++ (re.union (re.* (str.to.re "7")) (re.* (str.to.re "88"))) (re.++ (re.union (re.* (str.to.re "9")) (re.* (str.to.re "aa"))) (re.++ (re.* (re.* (str.to.re "bbb"))) (re.++ (re.+ (re.union (str.to.re "ccc") (str.to.re "d"))) (re.++ (re.union (re.union (str.to.re "ee") (str.to.re "fff")) (re.union (str.to.re "g") (str.to.re "hh"))) (re.++ (re.+ (re.+ (str.to.re "i"))) (re.++ (re.union (re.union (str.to.re "jj") (str.to.re "kk")) (re.union (str.to.re "l") (str.to.re "mm"))) (re.++ (re.union (re.union (str.to.re "n") (str.to.re "o")) (re.union (str.to.re "ppp") (str.to.re "qq"))) (re.++ (re.union (re.* (str.to.re "rr")) (re.* (str.to.re "ss"))) (re.++ (re.* (re.+ (str.to.re "t"))) (re.++ (re.* (re.union (str.to.re "uuu") (str.to.re "v"))) (re.++ (re.+ (re.* (str.to.re "w"))) (re.++ (re.+ (re.union (str.to.re "xx") (str.to.re "y"))) (re.++ (re.* (re.union (str.to.re "zz") (str.to.re "AA"))) (re.++ (re.* (re.* (str.to.re "BBB"))) (re.++ (re.* (re.union (str.to.re "CC") (str.to.re "DD"))) (re.++ (re.+ (re.union (str.to.re "EE") (str.to.re "FFF"))) (re.++ (re.* (re.+ (str.to.re "GGG"))) (re.++ (re.* (re.+ (str.to.re "H"))) (re.++ (re.* (re.union (str.to.re "I") (str.to.re "JJJ"))) (re.union (re.union (str.to.re "KKK") (str.to.re "LL")) (re.union (str.to.re "MM") (str.to.re "N"))))))))))))))))))))))))))))))))))))))))))))))))))))))))))))))))))))))))))))))))))
(check-sat)